
(set-logic ALL) 

(declare-datatype MyList ((Nil) (Cons (head Real) (tail MyList)) )) 
(declare-fun l0 () MyList) 
(declare-fun l1 () MyList) 
(declare-fun l2 () MyList) 
(declare-fun l3 () MyList) 
(declare-fun i0 () Real) 
(declare-fun i1 () Real) 
(assert (is-Cons Nil) )
(assert (not (= l3 Nil)) )
(assert (or (is-Nil Nil) (= l0 Nil) (= l1 Nil)) )
(assert (not (= l2 l0)) )
(assert (is-Nil Nil) )
(assert (is-Cons Nil) )
(assert (not (= l3 Nil)) )
(assert (or (is-Nil Nil) (= l0 l2) (= l1 Nil) (is-Cons Nil)) )
(check-sat)
